# Solution for model GasLib-40
# Objective value = 5.2994440977122196e+01
loadshed[innode_1] 0
loadshed[innode_2] 0
loadshed[innode_3] 0
loadshed[innode_4] 0
loadshed[innode_5] 0
loadshed[innode_6] 0
loadshed[innode_7] 0
loadshed[innode_8] 0
loadshed[source_1] -1.4519623518783153e-01
loadshed[source_2] 1.8834849950699062e-02
loadshed[source_3] 4.6157770417860688e-01
loadshed[sink_1] 0.376274384101955
loadshed[sink_2] 0
loadshed[sink_3] 0
loadshed[sink_4] 0
loadshed[sink_5] 0
loadshed[sink_6] 0
loadshed[sink_7] 0
loadshed[sink_8] 0
loadshed[sink_9] 0
loadshed[sink_10] 0
loadshed[sink_11] 0
loadshed[sink_12] 1
loadshed[sink_13] 0
loadshed[sink_14] 0
loadshed[sink_15] 0
loadshed[sink_16] 0
loadshed[sink_17] 0
loadshed[sink_18] 0
loadshed[sink_19] 0
loadshed[sink_20] 0
loadshed[sink_21] 1
loadshed[sink_22] 0
loadshed[sink_23] 0
loadshed[sink_24] 0.864150032333542
loadshed[sink_25] 0
loadshed[sink_26] 0
loadshed[sink_27] 0
loadshed[sink_28] 0
loadshed[sink_29] 0
flow[source_1,sink_3] 1.8104439093090963e+02
flow[innode_1,sink_16] 1.6354166666666970e+01
flow[innode_6,sink_13] 2.9359836358527140e+01
flow[sink_13,sink_14] 1.3005669691860472e+01
flow[sink_14,sink_10] -3.3484969748061957e+00
flow[sink_25,sink_26] 1.1236866639767349e+02
flow[sink_26,sink_9] 0
flow[sink_9,sink_18] -1.6354166666669244e+01
flow[sink_26,sink_4] 9.6014499731006822e+01
flow[sink_4,sink_20] -1.4474279297985520e+01
flow[sink_18,sink_6] -3.2708333333335915e+01
flow[sink_25,innode_8] -1.4833605759757324e+02
flow[sink_6,sink_7] -7.5617179343335181e+01
flow[sink_6,sink_22] 2.6554679343332612e+01
flow[sink_7,sink_24] 2.2217130128785318e+00
flow[sink_22,sink_1] 1.0200512676665944e+01
flow[sink_24,sink_21] 0
flow[sink_21,sink_12] 0
flow[sink_7,sink_5] -9.4193059022880377e+01
flow[sink_5,sink_17] -1.1054722568954705e+02
flow[sink_17,sink_4] -9.4134612362325669e+01
flow[sink_17,sink_8] -3.2766779993888051e+01
flow[sink_3,sink_23] 16.3541666666697
flow[sink_8,sink_20] -4.9120946660554722e+01
flow[sink_25,sink_20] 79.949392625207
flow[sink_25,sink_15] -8.9696004450501121e+01
flow[sink_15,sink_29] -5.9538840204963854e+01
flow[sink_29,sink_28] 1.6354166666667879e+01
flow[sink_29,sink_2] 62.8654975788706
flow[sink_2,sink_15] 4.6511330912203931e+01
flow[sink_29,innode_7] -155.112671117169
flow[innode_4,sink_19] 8.5119330308152882e+01
flow[sink_19,innode_3] 52.4109969748065
flow[innode_4,innode_5] 0
flow[sink_27,innode_5] 0
flow[sink_27,sink_19] -1.6354166666679703e+01
flow[sink_10,sink_11] 3.2708333333333641e+01
flow[sink_10,innode_2] 0
flow[sink_10,innode_3] -52.4109969748065
flow[innode_6,sink_25] -2.9359836358527140e+01
flow[sink_11,innode_1] 1.6354166666666970e+01
flow[sink_19,innode_2] 0
flow[source_3,innode_4] 8.5119330308152882e+01
flow[source_2,innode_7] 155.112671117169
flow[sink_3,innode_8] 1.4833605759757324e+02
pressure[innode_1] 74.5067247037048
pressure[innode_2] 7.7564849043926955e+01
pressure[innode_3] 7.7448790826027832e+01
pressure[innode_4] 81.01325
pressure[innode_5] 81.01325
pressure[innode_6] 7.4685177431290427e+01
pressure[innode_7] 81.01325
pressure[innode_8] 8.0408087762582127e+01
pressure[source_1] 81.01325
pressure[source_2] 81.01325
pressure[source_3] 81.01325
pressure[sink_1] 1.0132500000000002e+00
pressure[sink_2] 7.5272139699116678e+01
pressure[sink_3] 8.0408087762582127e+01
pressure[sink_4] 5.4563586254941669e+01
pressure[sink_5] 4.2731102514169727e+01
pressure[sink_6] 2.5189022290547474e+00
pressure[sink_7] 3.5569458573633619e+00
pressure[sink_8] 5.2202447504913515e+01
pressure[sink_9] 1.0537498497485096e+00
pressure[sink_10] 7.4658426011308350e+01
pressure[sink_11] 74.5067247037048
pressure[sink_12] 1.01325
pressure[sink_13] 7.4523321559930324e+01
pressure[sink_14] 7.4500046806178645e+01
pressure[sink_15] 7.5120290454620559e+01
pressure[sink_16] 7.3485074868887125e+01
pressure[sink_17] 5.0966071769742975e+01
pressure[sink_18] 1.6454923435482640e+00
pressure[sink_19] 7.7564849043926955e+01
pressure[sink_20] 5.5625486685967473e+01
pressure[sink_21] 1.01325
pressure[sink_22] 1.6767500634887016e+00
pressure[sink_23] 8.0243369750922341e+01
pressure[sink_24] 1.01325
pressure[sink_25] 7.4685177431290427e+01
pressure[sink_26] 66.7711182473605
pressure[sink_27] 7.7213719046783453e+01
pressure[sink_28] 7.6569311427189518e+01
pressure[sink_29] 7.6864593700806708e+01
interdiction[source_1,sink_3] 0
interdiction[innode_1,sink_16] 0
interdiction[innode_6,sink_13] 0
interdiction[sink_13,sink_14] 0
interdiction[sink_14,sink_10] 0
interdiction[sink_25,sink_26] 0
interdiction[sink_26,sink_9] 1
interdiction[sink_9,sink_18] 0
interdiction[sink_26,sink_4] 0
interdiction[sink_4,sink_20] 0
interdiction[sink_18,sink_6] 0
interdiction[sink_25,innode_8] 0
interdiction[sink_6,sink_7] 0
interdiction[sink_6,sink_22] 0
interdiction[sink_7,sink_24] 0
interdiction[sink_22,sink_1] 0
interdiction[sink_24,sink_21] 0
interdiction[sink_21,sink_12] 0
interdiction[sink_7,sink_5] 0
interdiction[sink_5,sink_17] 0
interdiction[sink_17,sink_4] 0
interdiction[sink_17,sink_8] 0
interdiction[sink_3,sink_23] 0
interdiction[sink_8,sink_20] 0
interdiction[sink_25,sink_20] 0
interdiction[sink_25,sink_15] 0
interdiction[sink_15,sink_29] 0
interdiction[sink_29,sink_28] 0
interdiction[sink_29,sink_2] 0
interdiction[sink_2,sink_15] 0
interdiction[sink_29,innode_7] 0
interdiction[innode_4,sink_19] 0
interdiction[sink_19,innode_3] 0
interdiction[innode_4,innode_5] 0
interdiction[sink_27,innode_5] 1
interdiction[sink_27,sink_19] 0
interdiction[sink_10,sink_11] 0
interdiction[sink_10,innode_2] 1
interdiction[sink_10,innode_3] 0
interdiction[innode_6,sink_25] 0
interdiction[sink_11,innode_1] 0
interdiction[sink_19,innode_2] 0
interdiction[source_3,innode_4] 0
interdiction[source_2,innode_7] 0
interdiction[sink_3,innode_8] 0
WCcheckFlow[source_1,sink_3] 39
WCcheckFlow[innode_1,sink_16] 1
WCcheckFlow[innode_6,sink_13] 13
WCcheckFlow[sink_13,sink_14] 12
WCcheckFlow[sink_14,sink_10] 11
WCcheckFlow[sink_25,sink_26] 15
WCcheckFlow[sink_26,sink_9] 0
WCcheckFlow[sink_9,sink_18] -1
WCcheckFlow[sink_26,sink_4] 14
WCcheckFlow[sink_4,sink_20] 1
WCcheckFlow[sink_18,sink_6] -2
WCcheckFlow[sink_25,innode_8] -36
WCcheckFlow[sink_6,sink_7] -5
WCcheckFlow[sink_6,sink_22] 2
WCcheckFlow[sink_7,sink_24] 3
WCcheckFlow[sink_22,sink_1] 1
WCcheckFlow[sink_24,sink_21] 2
WCcheckFlow[sink_21,sink_12] 1
WCcheckFlow[sink_7,sink_5] -9
WCcheckFlow[sink_5,sink_17] -10
WCcheckFlow[sink_17,sink_4] -12
WCcheckFlow[sink_17,sink_8] 1
WCcheckFlow[sink_3,sink_23] 1
WCcheckFlow[sink_8,sink_20] 0
WCcheckFlow[sink_25,sink_20] 0
WCcheckFlow[sink_25,sink_15] 6
WCcheckFlow[sink_15,sink_29] 5
WCcheckFlow[sink_29,sink_28] 1
WCcheckFlow[sink_29,sink_2] 1
WCcheckFlow[sink_2,sink_15] 0
WCcheckFlow[sink_29,innode_7] 2
WCcheckFlow[innode_4,sink_19] -3
WCcheckFlow[sink_19,innode_3] -6
WCcheckFlow[innode_4,innode_5] 1
WCcheckFlow[sink_27,innode_5] 0
WCcheckFlow[sink_27,sink_19] -1
WCcheckFlow[sink_10,sink_11] 3
WCcheckFlow[sink_10,innode_2] 0
WCcheckFlow[sink_10,innode_3] 7
WCcheckFlow[innode_6,sink_25] -14
WCcheckFlow[sink_11,innode_1] 2
WCcheckFlow[sink_19,innode_2] 1
WCcheckFlow[source_3,innode_4] -1
WCcheckFlow[source_2,innode_7] -1
WCcheckFlow[sink_3,innode_8] 37
